param set_len = 20;
param target_sum = 5198658889;
param values := [1] 546819568 [2] 755181236 [3] 134873521 [4] 971690702 [5] 248921798 [6] 1033997323 [7] 123066204 [8] 968001362 [9] 891579402 [10] 469373887 [11] 243895075 [12] 709672082 [13] 65534568 [14] 603106316 [15] 523867635 [16] 473970163 [17] 771555120 [18] 472401912 [19] 131885782 [20] 28954529 ;
